Maximize

2 x_0 + 2 x_1 + 4 x_2 + 0 x_3 + 2 x_4 + 0 x_5 + 3 x_6 + 2 x_7 + 1 x_8 + 0 x_9 + 1 x_10 + 4 x_11 + 2 x_12 + 4 x_13 + 3 x_14 + 1 x_15 + 3 x_16 + 3 x_17 + 0 x_18 + 2 x_19 + 0 x_20 + 0 x_21 + 4 x_22 + 2 x_23 + 1 x_24 + 4 x_25 + 0 x_26 + 4 x_27 + 4 x_28 + 2 x_29 + 4 x_30 + 2 x_31 + 1 x_32 + 1 x_33 + 4 x_34 + 4 x_35 + 4 x_36 + 3 x_37 + 3 x_38 + 4 x_39 + 1 x_40 + 2 x_41 + 0 x_42 + 2 x_43 + 1 x_44 + 3 x_45 + 4 x_46 + 2 x_47 + 4 x_48 + 1 x_49


Subject To

a0: 1573.4 x_0 + 1125.2 x_1 + 1560.3 x_2 + 1211.2 x_3 + 1079.5 x_4 + 1014.2 x_5 + 1815.8 x_6 + 1260.1 x_7 + 1502.1 x_8 + 1405.0 x_9 + 1254.1 x_10 + 1272.8 x_11 + 1590.0 x_12 + 1281.1 x_13 + 1013.3 x_14 + 1798.2 x_15 + 1829.7 x_16 + 1074.3 x_17 + 1548.2 x_18 + 1314.6 x_19 + 1619.3 x_20 + 1637.0 x_21 + 1236.7 x_22 + 1285.6 x_23 + 1542.6 x_24 + 1856.4 x_25 + 1379.3 x_26 + 1806.3 x_27 + 1021.7 x_28 + 1926.7 x_29 + 1374.8 x_30 + 1119.1 x_31 + 1434.7 x_32 + 1936.1 x_33 + 1390.2 x_34 + 1277.0 x_35 + 1307.7 x_36 + 1036.7 x_37 + 1605.3 x_38 + 1704.1 x_39 + 1436.1 x_40 + 1043.4 x_41 + 1089.6 x_42 + 1337.9 x_43 + 1748.1 x_44 + 1856.1 x_45 + 1562.9 x_46 + 1450.9 x_47 + 1407.5 x_48 + 1617.5 x_49 <= 12686
b0: 0 x_0 + 0 x_1 + 0 x_2 + 1 x_3 + 0 x_4 + 0 x_5 + 0 x_6 + 0 x_7 + 0 x_8 + 0 x_9 + 0 x_10 + 0 x_11 + 0 x_12 + 0 x_13 + 0 x_14 + 1 x_15 + 0 x_16 + 0 x_17 + 0 x_18 + 0 x_19 + 1 x_20 + 0 x_21 + 1 x_22 + 0 x_23 + 0 x_24 + 0 x_25 + 1 x_26 + 0 x_27 + 0 x_28 + 0 x_29 + 0 x_30 + 0 x_31 + 0 x_32 + 0 x_33 + 0 x_34 + 0 x_35 + 1 x_36 + 0 x_37 + 0 x_38 + 0 x_39 + 0 x_40 + 0 x_41 + 0 x_42 + 1 x_43 + 0 x_44 + 0 x_45 + 0 x_46 + 0 x_47 + 0 x_48 + 0 x_49 > 1
b1: 0 x_0 + 0 x_1 + 1 x_2 + 0 x_3 + 0 x_4 + 0 x_5 + 0 x_6 + 0 x_7 + 1 x_8 + 0 x_9 + 0 x_10 + 0 x_11 + 0 x_12 + 0 x_13 + 0 x_14 + 0 x_15 + 1 x_16 + 0 x_17 + 0 x_18 + 0 x_19 + 0 x_20 + 0 x_21 + 1 x_22 + 0 x_23 + 0 x_24 + 0 x_25 + 0 x_26 + 0 x_27 + 0 x_28 + 0 x_29 + 1 x_30 + 0 x_31 + 1 x_32 + 0 x_33 + 1 x_34 + 0 x_35 + 0 x_36 + 1 x_37 + 1 x_38 + 0 x_39 + 0 x_40 + 0 x_41 + 0 x_42 + 0 x_43 + 1 x_44 + 0 x_45 + 0 x_46 + 0 x_47 + 1 x_48 + 1 x_49 > 1
b2: 0 x_0 + 0 x_1 + 0 x_2 + 0 x_3 + 0 x_4 + 0 x_5 + 1 x_6 + 1 x_7 + 0 x_8 + 0 x_9 + 0 x_10 + 0 x_11 + 0 x_12 + 1 x_13 + 0 x_14 + 0 x_15 + 1 x_16 + 0 x_17 + 0 x_18 + 0 x_19 + 0 x_20 + 0 x_21 + 0 x_22 + 0 x_23 + 0 x_24 + 0 x_25 + 1 x_26 + 1 x_27 + 1 x_28 + 0 x_29 + 1 x_30 + 0 x_31 + 0 x_32 + 0 x_33 + 0 x_34 + 0 x_35 + 0 x_36 + 0 x_37 + 0 x_38 + 0 x_39 + 0 x_40 + 1 x_41 + 0 x_42 + 0 x_43 + 0 x_44 + 0 x_45 + 0 x_46 + 0 x_47 + 0 x_48 + 1 x_49 > 1
b3: 0 x_0 + 0 x_1 + 0 x_2 + 1 x_3 + 1 x_4 + 1 x_5 + 1 x_6 + 0 x_7 + 1 x_8 + 0 x_9 + 0 x_10 + 0 x_11 + 1 x_12 + 0 x_13 + 0 x_14 + 0 x_15 + 0 x_16 + 0 x_17 + 0 x_18 + 0 x_19 + 0 x_20 + 0 x_21 + 0 x_22 + 0 x_23 + 0 x_24 + 1 x_25 + 0 x_26 + 0 x_27 + 0 x_28 + 0 x_29 + 0 x_30 + 1 x_31 + 0 x_32 + 1 x_33 + 0 x_34 + 0 x_35 + 0 x_36 + 0 x_37 + 0 x_38 + 0 x_39 + 1 x_40 + 0 x_41 + 0 x_42 + 0 x_43 + 0 x_44 + 0 x_45 + 0 x_46 + 0 x_47 + 0 x_48 + 0 x_49 > 1
b4: 0 x_0 + 0 x_1 + 1 x_2 + 0 x_3 + 0 x_4 + 0 x_5 + 0 x_6 + 0 x_7 + 0 x_8 + 0 x_9 + 0 x_10 + 0 x_11 + 0 x_12 + 0 x_13 + 0 x_14 + 0 x_15 + 1 x_16 + 0 x_17 + 0 x_18 + 0 x_19 + 1 x_20 + 0 x_21 + 0 x_22 + 0 x_23 + 0 x_24 + 0 x_25 + 0 x_26 + 1 x_27 + 0 x_28 + 0 x_29 + 0 x_30 + 0 x_31 + 0 x_32 + 0 x_33 + 0 x_34 + 0 x_35 + 0 x_36 + 0 x_37 + 0 x_38 + 1 x_39 + 1 x_40 + 1 x_41 + 1 x_42 + 0 x_43 + 1 x_44 + 0 x_45 + 1 x_46 + 0 x_47 + 0 x_48 + 0 x_49 > 1
b5: 0 x_0 + 0 x_1 + 0 x_2 + 1 x_3 + 0 x_4 + 1 x_5 + 0 x_6 + 0 x_7 + 0 x_8 + 0 x_9 + 0 x_10 + 0 x_11 + 0 x_12 + 0 x_13 + 0 x_14 + 1 x_15 + 0 x_16 + 0 x_17 + 1 x_18 + 0 x_19 + 0 x_20 + 0 x_21 + 1 x_22 + 0 x_23 + 0 x_24 + 0 x_25 + 0 x_26 + 0 x_27 + 0 x_28 + 0 x_29 + 0 x_30 + 0 x_31 + 0 x_32 + 0 x_33 + 0 x_34 + 0 x_35 + 0 x_36 + 0 x_37 + 0 x_38 + 1 x_39 + 0 x_40 + 0 x_41 + 1 x_42 + 0 x_43 + 0 x_44 + 0 x_45 + 0 x_46 + 0 x_47 + 0 x_48 + 0 x_49 > 1
c0: x_49 + x_5 <= 1




 


End
